p wcnf 225 576
w -2 0.367879 0
w 2 2.718282 0
w -3 0.367879 0
w 3 2.718282 0
w -5 0.367879 0
w 5 2.718282 0
w -6 0.367879 0
w 6 2.718282 0
w -8 0.367879 0
w 8 2.718282 0
w -9 0.367879 0
w 9 2.718282 0
w -11 0.367879 0
w 11 2.718282 0
w -12 0.367879 0
w 12 2.718282 0
w -14 0.367879 0
w 14 2.718282 0
w -15 0.367879 0
w 15 2.718282 0
w -17 0.367879 0
w 17 2.718282 0
w -18 0.367879 0
w 18 2.718282 0
w -20 0.367879 0
w 20 2.718282 0
w -21 0.367879 0
w 21 2.718282 0
w -23 0.367879 0
w 23 2.718282 0
w -24 0.367879 0
w 24 2.718282 0
w -26 0.367879 0
w 26 2.718282 0
w -28 0.367879 0
w 28 2.718282 0
w -29 0.367879 0
w 29 2.718282 0
w -31 0.367879 0
w 31 2.718282 0
w -32 0.367879 0
w 32 2.718282 0
w -34 0.367879 0
w 34 2.718282 0
w -35 0.367879 0
w 35 2.718282 0
w -37 0.367879 0
w 37 2.718282 0
w -38 0.367879 0
w 38 2.718282 0
w -40 0.367879 0
w 40 2.718282 0
w -41 0.367879 0
w 41 2.718282 0
w -43 0.367879 0
w 43 2.718282 0
w -44 0.367879 0
w 44 2.718282 0
w -46 0.367879 0
w 46 2.718282 0
w -47 0.367879 0
w 47 2.718282 0
w -49 0.367879 0
w 49 2.718282 0
w -50 0.367879 0
w 50 2.718282 0
w -52 0.367879 0
w 52 2.718282 0
w -54 0.367879 0
w 54 2.718282 0
w -55 0.367879 0
w 55 2.718282 0
w -57 0.367879 0
w 57 2.718282 0
w -58 0.367879 0
w 58 2.718282 0
w -60 0.367879 0
w 60 2.718282 0
w -61 0.367879 0
w 61 2.718282 0
w -63 0.367879 0
w 63 2.718282 0
w -64 0.367879 0
w 64 2.718282 0
w -66 0.367879 0
w 66 2.718282 0
w -67 0.367879 0
w 67 2.718282 0
w -69 0.367879 0
w 69 2.718282 0
w -70 0.367879 0
w 70 2.718282 0
w -72 0.367879 0
w 72 2.718282 0
w -73 0.367879 0
w 73 2.718282 0
w -75 0.367879 0
w 75 2.718282 0
w -76 0.367879 0
w 76 2.718282 0
w -78 0.367879 0
w 78 2.718282 0
w -80 0.367879 0
w 80 2.718282 0
w -81 0.367879 0
w 81 2.718282 0
w -83 0.367879 0
w 83 2.718282 0
w -84 0.367879 0
w 84 2.718282 0
w -86 0.367879 0
w 86 2.718282 0
w -87 0.367879 0
w 87 2.718282 0
w -89 0.367879 0
w 89 2.718282 0
w -90 0.367879 0
w 90 2.718282 0
w -92 0.367879 0
w 92 2.718282 0
w -93 0.367879 0
w 93 2.718282 0
w -95 0.367879 0
w 95 2.718282 0
w -96 0.367879 0
w 96 2.718282 0
w -98 0.367879 0
w 98 2.718282 0
w -99 0.367879 0
w 99 2.718282 0
w -101 0.367879 0
w 101 2.718282 0
w -102 0.367879 0
w 102 2.718282 0
w -104 0.367879 0
w 104 2.718282 0
w -106 0.367879 0
w 106 2.718282 0
w -107 0.367879 0
w 107 2.718282 0
w -109 0.367879 0
w 109 2.718282 0
w -110 0.367879 0
w 110 2.718282 0
w -112 0.367879 0
w 112 2.718282 0
w -113 0.367879 0
w 113 2.718282 0
w -115 0.367879 0
w 115 2.718282 0
w -116 0.367879 0
w 116 2.718282 0
w -118 0.367879 0
w 118 2.718282 0
w -119 0.367879 0
w 119 2.718282 0
w -121 0.367879 0
w 121 2.718282 0
w -122 0.367879 0
w 122 2.718282 0
w -124 0.367879 0
w 124 2.718282 0
w -125 0.367879 0
w 125 2.718282 0
w -127 0.367879 0
w 127 2.718282 0
w -128 0.367879 0
w 128 2.718282 0
w -130 0.367879 0
w 130 2.718282 0
w -132 0.367879 0
w 132 2.718282 0
w -133 0.367879 0
w 133 2.718282 0
w -135 0.367879 0
w 135 2.718282 0
w -136 0.367879 0
w 136 2.718282 0
w -138 0.367879 0
w 138 2.718282 0
w -139 0.367879 0
w 139 2.718282 0
w -141 0.367879 0
w 141 2.718282 0
w -142 0.367879 0
w 142 2.718282 0
w -144 0.367879 0
w 144 2.718282 0
w -145 0.367879 0
w 145 2.718282 0
w -147 0.367879 0
w 147 2.718282 0
w -148 0.367879 0
w 148 2.718282 0
w -150 0.367879 0
w 150 2.718282 0
w -151 0.367879 0
w 151 2.718282 0
w -153 0.367879 0
w 153 2.718282 0
w -154 0.367879 0
w 154 2.718282 0
w -156 0.367879 0
w 156 2.718282 0
w -158 0.367879 0
w 158 2.718282 0
w -159 0.367879 0
w 159 2.718282 0
w -161 0.367879 0
w 161 2.718282 0
w -162 0.367879 0
w 162 2.718282 0
w -164 0.367879 0
w 164 2.718282 0
w -165 0.367879 0
w 165 2.718282 0
w -167 0.367879 0
w 167 2.718282 0
w -168 0.367879 0
w 168 2.718282 0
w -170 0.367879 0
w 170 2.718282 0
w -171 0.367879 0
w 171 2.718282 0
w -173 0.367879 0
w 173 2.718282 0
w -174 0.367879 0
w 174 2.718282 0
w -176 0.367879 0
w 176 2.718282 0
w -177 0.367879 0
w 177 2.718282 0
w -179 0.367879 0
w 179 2.718282 0
w -180 0.367879 0
w 180 2.718282 0
w -182 0.367879 0
w 182 2.718282 0
w -184 0.367879 0
w 184 2.718282 0
w -185 0.367879 0
w 185 2.718282 0
w -187 0.367879 0
w 187 2.718282 0
w -188 0.367879 0
w 188 2.718282 0
w -190 0.367879 0
w 190 2.718282 0
w -191 0.367879 0
w 191 2.718282 0
w -193 0.367879 0
w 193 2.718282 0
w -194 0.367879 0
w 194 2.718282 0
w -196 0.367879 0
w 196 2.718282 0
w -197 0.367879 0
w 197 2.718282 0
w -199 0.367879 0
w 199 2.718282 0
w -200 0.367879 0
w 200 2.718282 0
w -202 0.367879 0
w 202 2.718282 0
w -203 0.367879 0
w 203 2.718282 0
w -205 0.367879 0
w 205 2.718282 0
w -206 0.367879 0
w 206 2.718282 0
w -208 0.367879 0
w 208 2.718282 0
w -210 0.367879 0
w 210 2.718282 0
w -212 0.367879 0
w 212 2.718282 0
w -214 0.367879 0
w 214 2.718282 0
w -216 0.367879 0
w 216 2.718282 0
w -218 0.367879 0
w 218 2.718282 0
w -220 0.367879 0
w 220 2.718282 0
w -222 0.367879 0
w 222 2.718282 0
w -224 0.367879 0
w 224 2.718282 0
2 1 4 0
2 -1 -4 0
-2 1 -4 0
-2 -1 4 0
3 1 27 0
3 -1 -27 0
-3 1 -27 0
-3 -1 27 0
5 4 7 0
5 -4 -7 0
-5 4 -7 0
-5 -4 7 0
6 4 30 0
6 -4 -30 0
-6 4 -30 0
-6 -4 30 0
8 7 10 0
8 -7 -10 0
-8 7 -10 0
-8 -7 10 0
9 7 33 0
9 -7 -33 0
-9 7 -33 0
-9 -7 33 0
11 10 13 0
11 -10 -13 0
-11 10 -13 0
-11 -10 13 0
12 10 36 0
12 -10 -36 0
-12 10 -36 0
-12 -10 36 0
14 13 16 0
14 -13 -16 0
-14 13 -16 0
-14 -13 16 0
15 13 39 0
15 -13 -39 0
-15 13 -39 0
-15 -13 39 0
17 16 19 0
17 -16 -19 0
-17 16 -19 0
-17 -16 19 0
18 16 42 0
18 -16 -42 0
-18 16 -42 0
-18 -16 42 0
20 19 22 0
20 -19 -22 0
-20 19 -22 0
-20 -19 22 0
21 19 45 0
21 -19 -45 0
-21 19 -45 0
-21 -19 45 0
23 22 25 0
23 -22 -25 0
-23 22 -25 0
-23 -22 25 0
24 22 48 0
24 -22 -48 0
-24 22 -48 0
-24 -22 48 0
26 25 51 0
26 -25 -51 0
-26 25 -51 0
-26 -25 51 0
28 27 30 0
28 -27 -30 0
-28 27 -30 0
-28 -27 30 0
29 27 53 0
29 -27 -53 0
-29 27 -53 0
-29 -27 53 0
31 30 33 0
31 -30 -33 0
-31 30 -33 0
-31 -30 33 0
32 30 56 0
32 -30 -56 0
-32 30 -56 0
-32 -30 56 0
34 33 36 0
34 -33 -36 0
-34 33 -36 0
-34 -33 36 0
35 33 59 0
35 -33 -59 0
-35 33 -59 0
-35 -33 59 0
37 36 39 0
37 -36 -39 0
-37 36 -39 0
-37 -36 39 0
38 36 62 0
38 -36 -62 0
-38 36 -62 0
-38 -36 62 0
40 39 42 0
40 -39 -42 0
-40 39 -42 0
-40 -39 42 0
41 39 65 0
41 -39 -65 0
-41 39 -65 0
-41 -39 65 0
43 42 45 0
43 -42 -45 0
-43 42 -45 0
-43 -42 45 0
44 42 68 0
44 -42 -68 0
-44 42 -68 0
-44 -42 68 0
46 45 48 0
46 -45 -48 0
-46 45 -48 0
-46 -45 48 0
47 45 71 0
47 -45 -71 0
-47 45 -71 0
-47 -45 71 0
49 48 51 0
49 -48 -51 0
-49 48 -51 0
-49 -48 51 0
50 48 74 0
50 -48 -74 0
-50 48 -74 0
-50 -48 74 0
52 51 77 0
52 -51 -77 0
-52 51 -77 0
-52 -51 77 0
54 53 56 0
54 -53 -56 0
-54 53 -56 0
-54 -53 56 0
55 53 79 0
55 -53 -79 0
-55 53 -79 0
-55 -53 79 0
57 56 59 0
57 -56 -59 0
-57 56 -59 0
-57 -56 59 0
58 56 82 0
58 -56 -82 0
-58 56 -82 0
-58 -56 82 0
60 59 62 0
60 -59 -62 0
-60 59 -62 0
-60 -59 62 0
61 59 85 0
61 -59 -85 0
-61 59 -85 0
-61 -59 85 0
63 62 65 0
63 -62 -65 0
-63 62 -65 0
-63 -62 65 0
64 62 88 0
64 -62 -88 0
-64 62 -88 0
-64 -62 88 0
66 65 68 0
66 -65 -68 0
-66 65 -68 0
-66 -65 68 0
67 65 91 0
67 -65 -91 0
-67 65 -91 0
-67 -65 91 0
69 68 71 0
69 -68 -71 0
-69 68 -71 0
-69 -68 71 0
70 68 94 0
70 -68 -94 0
-70 68 -94 0
-70 -68 94 0
72 71 74 0
72 -71 -74 0
-72 71 -74 0
-72 -71 74 0
73 71 97 0
73 -71 -97 0
-73 71 -97 0
-73 -71 97 0
75 74 77 0
75 -74 -77 0
-75 74 -77 0
-75 -74 77 0
76 74 100 0
76 -74 -100 0
-76 74 -100 0
-76 -74 100 0
78 77 103 0
78 -77 -103 0
-78 77 -103 0
-78 -77 103 0
80 79 82 0
80 -79 -82 0
-80 79 -82 0
-80 -79 82 0
81 79 105 0
81 -79 -105 0
-81 79 -105 0
-81 -79 105 0
83 82 85 0
83 -82 -85 0
-83 82 -85 0
-83 -82 85 0
84 82 108 0
84 -82 -108 0
-84 82 -108 0
-84 -82 108 0
86 85 88 0
86 -85 -88 0
-86 85 -88 0
-86 -85 88 0
87 85 111 0
87 -85 -111 0
-87 85 -111 0
-87 -85 111 0
89 88 91 0
89 -88 -91 0
-89 88 -91 0
-89 -88 91 0
90 88 114 0
90 -88 -114 0
-90 88 -114 0
-90 -88 114 0
92 91 94 0
92 -91 -94 0
-92 91 -94 0
-92 -91 94 0
93 91 117 0
93 -91 -117 0
-93 91 -117 0
-93 -91 117 0
95 94 97 0
95 -94 -97 0
-95 94 -97 0
-95 -94 97 0
96 94 120 0
96 -94 -120 0
-96 94 -120 0
-96 -94 120 0
98 97 100 0
98 -97 -100 0
-98 97 -100 0
-98 -97 100 0
99 97 123 0
99 -97 -123 0
-99 97 -123 0
-99 -97 123 0
101 100 103 0
101 -100 -103 0
-101 100 -103 0
-101 -100 103 0
102 100 126 0
102 -100 -126 0
-102 100 -126 0
-102 -100 126 0
104 103 129 0
104 -103 -129 0
-104 103 -129 0
-104 -103 129 0
106 105 108 0
106 -105 -108 0
-106 105 -108 0
-106 -105 108 0
107 105 131 0
107 -105 -131 0
-107 105 -131 0
-107 -105 131 0
109 108 111 0
109 -108 -111 0
-109 108 -111 0
-109 -108 111 0
110 108 134 0
110 -108 -134 0
-110 108 -134 0
-110 -108 134 0
112 111 114 0
112 -111 -114 0
-112 111 -114 0
-112 -111 114 0
113 111 137 0
113 -111 -137 0
-113 111 -137 0
-113 -111 137 0
115 114 117 0
115 -114 -117 0
-115 114 -117 0
-115 -114 117 0
116 114 140 0
116 -114 -140 0
-116 114 -140 0
-116 -114 140 0
118 117 120 0
118 -117 -120 0
-118 117 -120 0
-118 -117 120 0
119 117 143 0
119 -117 -143 0
-119 117 -143 0
-119 -117 143 0
121 120 123 0
121 -120 -123 0
-121 120 -123 0
-121 -120 123 0
122 120 146 0
122 -120 -146 0
-122 120 -146 0
-122 -120 146 0
124 123 126 0
124 -123 -126 0
-124 123 -126 0
-124 -123 126 0
125 123 149 0
125 -123 -149 0
-125 123 -149 0
-125 -123 149 0
127 126 129 0
127 -126 -129 0
-127 126 -129 0
-127 -126 129 0
128 126 152 0
128 -126 -152 0
-128 126 -152 0
-128 -126 152 0
130 129 155 0
130 -129 -155 0
-130 129 -155 0
-130 -129 155 0
132 131 134 0
132 -131 -134 0
-132 131 -134 0
-132 -131 134 0
133 131 157 0
133 -131 -157 0
-133 131 -157 0
-133 -131 157 0
135 134 137 0
135 -134 -137 0
-135 134 -137 0
-135 -134 137 0
136 134 160 0
136 -134 -160 0
-136 134 -160 0
-136 -134 160 0
138 137 140 0
138 -137 -140 0
-138 137 -140 0
-138 -137 140 0
139 137 163 0
139 -137 -163 0
-139 137 -163 0
-139 -137 163 0
141 140 143 0
141 -140 -143 0
-141 140 -143 0
-141 -140 143 0
142 140 166 0
142 -140 -166 0
-142 140 -166 0
-142 -140 166 0
144 143 146 0
144 -143 -146 0
-144 143 -146 0
-144 -143 146 0
145 143 169 0
145 -143 -169 0
-145 143 -169 0
-145 -143 169 0
147 146 149 0
147 -146 -149 0
-147 146 -149 0
-147 -146 149 0
148 146 172 0
148 -146 -172 0
-148 146 -172 0
-148 -146 172 0
150 149 152 0
150 -149 -152 0
-150 149 -152 0
-150 -149 152 0
151 149 175 0
151 -149 -175 0
-151 149 -175 0
-151 -149 175 0
153 152 155 0
153 -152 -155 0
-153 152 -155 0
-153 -152 155 0
154 152 178 0
154 -152 -178 0
-154 152 -178 0
-154 -152 178 0
156 155 181 0
156 -155 -181 0
-156 155 -181 0
-156 -155 181 0
158 157 160 0
158 -157 -160 0
-158 157 -160 0
-158 -157 160 0
159 157 183 0
159 -157 -183 0
-159 157 -183 0
-159 -157 183 0
161 160 163 0
161 -160 -163 0
-161 160 -163 0
-161 -160 163 0
162 160 186 0
162 -160 -186 0
-162 160 -186 0
-162 -160 186 0
164 163 166 0
164 -163 -166 0
-164 163 -166 0
-164 -163 166 0
165 163 189 0
165 -163 -189 0
-165 163 -189 0
-165 -163 189 0
167 166 169 0
167 -166 -169 0
-167 166 -169 0
-167 -166 169 0
168 166 192 0
168 -166 -192 0
-168 166 -192 0
-168 -166 192 0
170 169 172 0
170 -169 -172 0
-170 169 -172 0
-170 -169 172 0
171 169 195 0
171 -169 -195 0
-171 169 -195 0
-171 -169 195 0
173 172 175 0
173 -172 -175 0
-173 172 -175 0
-173 -172 175 0
174 172 198 0
174 -172 -198 0
-174 172 -198 0
-174 -172 198 0
176 175 178 0
176 -175 -178 0
-176 175 -178 0
-176 -175 178 0
177 175 201 0
177 -175 -201 0
-177 175 -201 0
-177 -175 201 0
179 178 181 0
179 -178 -181 0
-179 178 -181 0
-179 -178 181 0
180 178 204 0
180 -178 -204 0
-180 178 -204 0
-180 -178 204 0
182 181 207 0
182 -181 -207 0
-182 181 -207 0
-182 -181 207 0
184 183 186 0
184 -183 -186 0
-184 183 -186 0
-184 -183 186 0
185 183 209 0
185 -183 -209 0
-185 183 -209 0
-185 -183 209 0
187 186 189 0
187 -186 -189 0
-187 186 -189 0
-187 -186 189 0
188 186 211 0
188 -186 -211 0
-188 186 -211 0
-188 -186 211 0
190 189 192 0
190 -189 -192 0
-190 189 -192 0
-190 -189 192 0
191 189 213 0
191 -189 -213 0
-191 189 -213 0
-191 -189 213 0
193 192 195 0
193 -192 -195 0
-193 192 -195 0
-193 -192 195 0
194 192 215 0
194 -192 -215 0
-194 192 -215 0
-194 -192 215 0
196 195 198 0
196 -195 -198 0
-196 195 -198 0
-196 -195 198 0
197 195 217 0
197 -195 -217 0
-197 195 -217 0
-197 -195 217 0
199 198 201 0
199 -198 -201 0
-199 198 -201 0
-199 -198 201 0
200 198 219 0
200 -198 -219 0
-200 198 -219 0
-200 -198 219 0
202 201 204 0
202 -201 -204 0
-202 201 -204 0
-202 -201 204 0
203 201 221 0
203 -201 -221 0
-203 201 -221 0
-203 -201 221 0
205 204 207 0
205 -204 -207 0
-205 204 -207 0
-205 -204 207 0
206 204 223 0
206 -204 -223 0
-206 204 -223 0
-206 -204 223 0
208 207 225 0
208 -207 -225 0
-208 207 -225 0
-208 -207 225 0
210 209 211 0
210 -209 -211 0
-210 209 -211 0
-210 -209 211 0
212 211 213 0
212 -211 -213 0
-212 211 -213 0
-212 -211 213 0
214 213 215 0
214 -213 -215 0
-214 213 -215 0
-214 -213 215 0
216 215 217 0
216 -215 -217 0
-216 215 -217 0
-216 -215 217 0
218 217 219 0
218 -217 -219 0
-218 217 -219 0
-218 -217 219 0
220 219 221 0
220 -219 -221 0
-220 219 -221 0
-220 -219 221 0
222 221 223 0
222 -221 -223 0
-222 221 -223 0
-222 -221 223 0
224 223 225 0
224 -223 -225 0
-224 223 -225 0
-224 -223 225 0
